;; Original file: ts_196.smt2
(set-logic HORN)
(declare-fun itp (Real Real Real Real ) Bool)
(declare-fun fail () Bool)
(assert (forall ((x1 Real) (x3 Real) (x5 Real) (x7 Real))
  (=> (and (= x1 0) (= x3 0) (= x5 0) (= x7 0)) (itp x1 x3 x5 x7))))
(assert (forall ((x1 Real)
         (x3 Real)
         (x5 Real)
         (x7 Real)
         (x2 Real)
         (x4 Real)
         (x6 Real)
         (x8 Real))
  (=> (and (itp x1 x3 x5 x7)
           (= x2 (+ x1 1))
           (= x4 (+ x3 x2))
           (= x6 (+ x5 x4))
           (= x8 (+ x7 x6)))
      (itp x2 x4 x6 x8))))
(assert (forall ((x1 Real) (x3 Real) (x5 Real) (x7 Real))
  (=> (and (itp x1 x3 x5 x7) (not (>= x7 0))) false)))

(check-sat)
(exit)
